c "486232.clq"
p edge 100 1344
e 1 17
e 1 18
e 1 20
e 1 21
e 1 22
e 1 25
e 1 27
e 1 29
e 1 31
e 1 34
e 1 35
e 1 36
e 1 39
e 1 47
e 1 48
e 1 54
e 1 55
e 1 63
e 1 69
e 1 73
e 1 76
e 1 84
e 1 89
e 2 17
e 2 18
e 2 19
e 2 20
e 2 21
e 2 22
e 2 23
e 2 28
e 2 30
e 2 33
e 2 36
e 2 37
e 2 38
e 2 41
e 2 52
e 2 59
e 2 65
e 2 74
e 2 81
e 2 86
e 3 17
e 3 18
e 3 19
e 3 20
e 3 21
e 3 22
e 3 23
e 3 28
e 3 29
e 3 30
e 3 34
e 3 36
e 3 38
e 3 41
e 3 50
e 3 53
e 3 63
e 3 66
e 3 75
e 3 77
e 3 92
e 3 95
e 3 96
e 4 17
e 4 18
e 4 19
e 4 20
e 4 21
e 4 22
e 4 23
e 4 24
e 4 26
e 4 27
e 4 29
e 4 30
e 4 32
e 4 33
e 4 34
e 4 35
e 4 38
e 4 40
e 4 41
e 4 42
e 4 44
e 4 50
e 4 51
e 4 52
e 4 55
e 4 56
e 4 58
e 4 61
e 4 62
e 4 64
e 4 65
e 4 73
e 4 78
e 4 79
e 4 82
e 4 85
e 4 87
e 4 89
e 4 92
e 4 95
e 4 97
e 4 98
e 4 100
e 5 17
e 5 18
e 5 19
e 5 20
e 5 21
e 5 22
e 5 23
e 5 25
e 5 26
e 5 27
e 5 28
e 5 36
e 5 40
e 5 42
e 5 46
e 5 49
e 5 50
e 5 51
e 5 60
e 5 64
e 5 68
e 5 71
e 5 83
e 5 84
e 5 89
e 5 91
e 5 92
e 5 97
e 6 17
e 6 18
e 6 19
e 6 20
e 6 21
e 6 23
e 6 24
e 6 27
e 6 28
e 6 30
e 6 31
e 6 32
e 6 34
e 6 36
e 6 40
e 6 42
e 6 47
e 6 48
e 6 56
e 6 57
e 6 60
e 6 67
e 6 74
e 6 75
e 6 85
e 6 94
e 6 97
e 7 17
e 7 18
e 7 19
e 7 24
e 7 25
e 7 29
e 7 31
e 7 32
e 7 45
e 7 57
e 7 71
e 7 72
e 7 76
e 7 88
e 7 99
e 8 17
e 8 19
e 8 20
e 8 23
e 8 24
e 8 25
e 8 26
e 8 27
e 8 28
e 8 31
e 8 37
e 8 38
e 8 44
e 8 52
e 8 56
e 8 66
e 8 68
e 8 71
e 8 83
e 8 98
e 8 100
e 9 17
e 9 18
e 9 19
e 9 20
e 9 21
e 9 22
e 9 24
e 9 28
e 9 29
e 9 31
e 9 34
e 9 36
e 9 37
e 9 39
e 9 45
e 9 47
e 9 50
e 9 53
e 9 57
e 9 76
e 9 80
e 9 82
e 9 90
e 9 92
e 10 17
e 10 18
e 10 19
e 10 20
e 10 21
e 10 22
e 10 24
e 10 28
e 10 29
e 10 35
e 10 54
e 10 69
e 10 89
e 11 17
e 11 18
e 11 19
e 11 20
e 11 22
e 11 23
e 11 24
e 11 25
e 11 27
e 11 30
e 11 32
e 11 49
e 11 55
e 11 71
e 11 73
e 11 78
e 11 82
e 11 99
e 12 17
e 12 18
e 12 19
e 12 21
e 12 23
e 12 25
e 12 26
e 12 27
e 12 29
e 12 31
e 12 32
e 12 33
e 12 39
e 12 42
e 12 44
e 12 45
e 12 48
e 12 51
e 12 59
e 12 61
e 12 66
e 12 67
e 12 69
e 12 70
e 12 74
e 12 76
e 12 78
e 12 94
e 12 100
e 13 17
e 13 18
e 13 19
e 13 21
e 13 22
e 13 24
e 13 25
e 13 26
e 13 33
e 13 37
e 13 40
e 13 59
e 13 74
e 13 75
e 13 78
e 13 82
e 13 86
e 13 90
e 13 92
e 14 17
e 14 18
e 14 20
e 14 21
e 14 22
e 14 23
e 14 24
e 14 25
e 14 26
e 14 30
e 14 32
e 14 35
e 14 39
e 14 43
e 14 47
e 14 48
e 14 58
e 14 64
e 14 71
e 14 79
e 14 80
e 14 84
e 14 85
e 14 86
e 14 88
e 14 91
e 14 100
e 15 17
e 15 18
e 15 19
e 15 20
e 15 23
e 15 27
e 15 28
e 15 30
e 15 43
e 15 48
e 15 49
e 15 62
e 15 80
e 15 84
e 16 17
e 16 18
e 16 19
e 16 20
e 16 21
e 16 22
e 16 23
e 16 24
e 16 25
e 16 26
e 16 28
e 16 31
e 16 36
e 16 38
e 16 39
e 16 40
e 16 41
e 16 45
e 16 46
e 16 49
e 16 53
e 16 55
e 16 58
e 16 63
e 16 64
e 16 74
e 16 75
e 16 81
e 16 83
e 16 84
e 16 89
e 16 90
e 16 91
e 16 96
e 16 97
e 17 18
e 17 19
e 17 20
e 17 21
e 17 22
e 17 23
e 17 25
e 17 26
e 17 28
e 17 29
e 17 32
e 17 33
e 17 34
e 17 35
e 17 38
e 17 39
e 17 40
e 17 41
e 17 42
e 17 43
e 17 44
e 17 46
e 17 48
e 17 53
e 17 55
e 17 56
e 17 57
e 17 59
e 17 60
e 17 61
e 17 65
e 17 73
e 17 76
e 17 77
e 17 78
e 17 79
e 17 84
e 17 85
e 17 86
e 17 87
e 17 90
e 17 92
e 17 94
e 17 95
e 17 97
e 17 98
e 18 19
e 18 20
e 18 21
e 18 22
e 18 23
e 18 24
e 18 25
e 18 26
e 18 27
e 18 28
e 18 29
e 18 30
e 18 31
e 18 32
e 18 33
e 18 34
e 18 36
e 18 37
e 18 39
e 18 41
e 18 42
e 18 43
e 18 45
e 18 46
e 18 49
e 18 58
e 18 59
e 18 60
e 18 61
e 18 65
e 18 66
e 18 67
e 18 70
e 18 71
e 18 72
e 18 73
e 18 75
e 18 76
e 18 77
e 18 78
e 18 79
e 18 80
e 18 81
e 18 82
e 18 83
e 18 84
e 18 86
e 18 87
e 18 88
e 18 92
e 18 93
e 19 20
e 19 21
e 19 22
e 19 23
e 19 24
e 19 26
e 19 27
e 19 28
e 19 29
e 19 31
e 19 33
e 19 35
e 19 36
e 19 37
e 19 38
e 19 39
e 19 41
e 19 44
e 19 47
e 19 49
e 19 51
e 19 53
e 19 55
e 19 58
e 19 61
e 19 62
e 19 64
e 19 66
e 19 67
e 19 68
e 19 70
e 19 73
e 19 76
e 19 79
e 19 90
e 19 95
e 19 98
e 19 99
e 19 100
e 20 21
e 20 22
e 20 23
e 20 24
e 20 25
e 20 26
e 20 27
e 20 29
e 20 31
e 20 32
e 20 33
e 20 34
e 20 35
e 20 37
e 20 39
e 20 40
e 20 42
e 20 43
e 20 44
e 20 45
e 20 46
e 20 47
e 20 48
e 20 49
e 20 54
e 20 56
e 20 61
e 20 62
e 20 63
e 20 70
e 20 71
e 20 75
e 20 76
e 20 79
e 20 83
e 20 87
e 20 88
e 20 93
e 20 97
e 21 22
e 21 23
e 21 24
e 21 25
e 21 26
e 21 27
e 21 28
e 21 29
e 21 30
e 21 31
e 21 32
e 21 33
e 21 36
e 21 37
e 21 40
e 21 41
e 21 42
e 21 44
e 21 45
e 21 46
e 21 50
e 21 51
e 21 53
e 21 54
e 21 55
e 21 56
e 21 57
e 21 61
e 21 64
e 21 69
e 21 70
e 21 72
e 21 73
e 21 74
e 21 75
e 21 84
e 21 86
e 21 87
e 21 89
e 21 90
e 21 91
e 21 92
e 21 95
e 21 97
e 22 24
e 22 25
e 22 26
e 22 28
e 22 29
e 22 30
e 22 31
e 22 34
e 22 35
e 22 37
e 22 38
e 22 39
e 22 40
e 22 41
e 22 43
e 22 44
e 22 45
e 22 47
e 22 48
e 22 50
e 22 52
e 22 54
e 22 55
e 22 57
e 22 60
e 22 61
e 22 62
e 22 68
e 22 69
e 22 70
e 22 78
e 22 80
e 22 85
e 22 93
e 22 94
e 23 24
e 23 25
e 23 26
e 23 27
e 23 29
e 23 30
e 23 31
e 23 33
e 23 34
e 23 35
e 23 42
e 23 43
e 23 45
e 23 52
e 23 54
e 23 55
e 23 56
e 23 57
e 23 58
e 23 59
e 23 61
e 23 63
e 23 65
e 23 69
e 23 70
e 23 71
e 23 73
e 23 79
e 23 81
e 23 83
e 23 85
e 23 87
e 23 91
e 23 95
e 23 98
e 24 25
e 24 26
e 24 27
e 24 30
e 24 31
e 24 32
e 24 33
e 24 34
e 24 35
e 24 38
e 24 40
e 24 41
e 24 42
e 24 43
e 24 44
e 24 48
e 24 50
e 24 51
e 24 54
e 24 56
e 24 62
e 24 74
e 24 77
e 24 81
e 24 82
e 24 84
e 24 85
e 24 91
e 24 92
e 24 99
e 24 100
e 25 26
e 25 27
e 25 30
e 25 31
e 25 32
e 25 33
e 25 35
e 25 38
e 25 43
e 25 46
e 25 47
e 25 49
e 25 51
e 25 52
e 25 53
e 25 54
e 25 58
e 25 60
e 25 62
e 25 68
e 25 69
e 25 70
e 25 71
e 25 76
e 25 80
e 25 85
e 25 87
e 25 91
e 25 92
e 25 93
e 25 96
e 25 98
e 26 27
e 26 28
e 26 29
e 26 30
e 26 32
e 26 33
e 26 34
e 26 35
e 26 36
e 26 37
e 26 38
e 26 42
e 26 43
e 26 44
e 26 47
e 26 48
e 26 49
e 26 55
e 26 56
e 26 57
e 26 62
e 26 65
e 26 69
e 26 77
e 26 78
e 26 80
e 26 82
e 26 86
e 26 87
e 26 88
e 26 90
e 26 91
e 26 93
e 26 94
e 26 98
e 27 28
e 27 30
e 27 31
e 27 33
e 27 34
e 27 35
e 27 36
e 27 37
e 27 40
e 27 43
e 27 45
e 27 46
e 27 50
e 27 53
e 27 67
e 27 69
e 27 72
e 27 73
e 27 74
e 27 76
e 27 80
e 27 81
e 27 84
e 27 93
e 27 95
e 28 29
e 28 30
e 28 32
e 28 33
e 28 36
e 28 37
e 28 38
e 28 41
e 28 44
e 28 47
e 28 51
e 28 53
e 28 54
e 28 58
e 28 60
e 28 61
e 28 68
e 28 69
e 28 70
e 28 71
e 28 75
e 28 77
e 28 83
e 28 85
e 28 88
e 28 92
e 28 93
e 28 96
e 28 97
e 29 32
e 29 34
e 29 36
e 29 37
e 29 41
e 29 45
e 29 46
e 29 47
e 29 48
e 29 51
e 29 55
e 29 59
e 29 63
e 29 64
e 29 65
e 29 66
e 29 67
e 29 69
e 29 70
e 29 72
e 29 73
e 29 79
e 29 80
e 29 89
e 29 90
e 29 93
e 29 97
e 29 99
e 30 32
e 30 33
e 30 35
e 30 37
e 30 38
e 30 40
e 30 42
e 30 45
e 30 48
e 30 49
e 30 51
e 30 52
e 30 53
e 30 55
e 30 60
e 30 63
e 30 66
e 30 68
e 30 71
e 30 72
e 30 75
e 30 78
e 30 79
e 30 81
e 30 86
e 30 90
e 30 92
e 30 99
e 31 35
e 31 36
e 31 38
e 31 39
e 31 42
e 31 45
e 31 46
e 31 47
e 31 49
e 31 50
e 31 51
e 31 53
e 31 55
e 31 59
e 31 61
e 31 64
e 31 69
e 31 70
e 31 71
e 31 74
e 31 77
e 31 79
e 31 81
e 31 83
e 31 85
e 31 86
e 31 89
e 31 98
e 31 99
e 32 34
e 32 39
e 32 41
e 32 43
e 32 44
e 32 50
e 32 51
e 32 68
e 32 77
e 32 94
e 33 34
e 33 35
e 33 37
e 33 39
e 33 40
e 33 41
e 33 43
e 33 44
e 33 45
e 33 48
e 33 49
e 33 54
e 33 58
e 33 62
e 33 63
e 33 65
e 33 66
e 33 68
e 33 72
e 33 74
e 33 75
e 33 76
e 33 81
e 33 82
e 33 91
e 33 93
e 33 97
e 33 99
e 34 36
e 34 39
e 34 40
e 34 42
e 34 44
e 34 47
e 34 48
e 34 53
e 34 54
e 34 58
e 34 60
e 34 65
e 34 71
e 34 72
e 34 73
e 34 77
e 34 83
e 34 87
e 34 88
e 34 95
e 34 97
e 34 99
e 34 100
e 35 37
e 35 40
e 35 41
e 35 52
e 35 54
e 35 59
e 35 64
e 35 65
e 35 73
e 35 80
e 35 86
e 35 90
e 35 96
e 36 38
e 36 41
e 36 42
e 36 43
e 36 46
e 36 51
e 36 52
e 36 58
e 36 62
e 36 63
e 36 68
e 36 86
e 36 88
e 37 38
e 37 39
e 37 40
e 37 45
e 37 46
e 37 49
e 37 51
e 37 52
e 37 54
e 37 59
e 37 60
e 37 64
e 37 66
e 37 67
e 37 69
e 37 74
e 37 77
e 37 82
e 38 39
e 38 46
e 38 47
e 38 54
e 38 58
e 38 60
e 38 61
e 38 63
e 38 65
e 38 67
e 38 94
e 39 43
e 39 44
e 39 47
e 39 48
e 39 58
e 39 59
e 39 60
e 39 67
e 39 73
e 39 74
e 39 80
e 39 82
e 39 94
e 39 98
e 40 42
e 40 43
e 40 49
e 40 50
e 40 52
e 40 56
e 40 57
e 40 59
e 40 60
e 40 61
e 40 63
e 40 64
e 40 70
e 40 71
e 40 74
e 40 78
e 40 80
e 40 84
e 40 85
e 40 87
e 40 92
e 40 98
e 40 100
e 41 45
e 41 46
e 41 50
e 41 51
e 41 58
e 41 62
e 41 67
e 41 94
e 42 55
e 42 57
e 42 65
e 42 66
e 42 75
e 42 80
e 42 81
e 42 82
e 42 83
e 42 95
e 43 44
e 43 46
e 43 47
e 43 49
e 43 59
e 43 63
e 43 65
e 43 67
e 43 75
e 43 90
e 43 93
e 43 100
e 44 46
e 44 50
e 44 52
e 44 53
e 44 54
e 44 56
e 44 61
e 44 64
e 44 68
e 44 69
e 44 72
e 44 79
e 44 82
e 44 83
e 44 87
e 44 98
e 44 99
e 45 50
e 45 56
e 45 63
e 45 82
e 45 89
e 45 94
e 45 99
e 46 50
e 46 53
e 46 56
e 46 59
e 46 62
e 46 64
e 46 65
e 46 66
e 46 67
e 46 68
e 46 70
e 46 72
e 46 73
e 46 76
e 46 79
e 46 81
e 46 83
e 46 91
e 46 95
e 46 97
e 47 48
e 47 52
e 47 53
e 47 66
e 47 78
e 47 90
e 47 93
e 47 98
e 48 49
e 48 54
e 48 56
e 48 57
e 48 58
e 48 62
e 48 71
e 48 77
e 48 81
e 48 83
e 48 88
e 48 90
e 48 93
e 49 50
e 49 51
e 49 52
e 49 56
e 49 57
e 49 59
e 49 60
e 49 62
e 49 66
e 49 74
e 49 95
e 50 52
e 50 53
e 50 57
e 50 58
e 50 65
e 50 70
e 50 75
e 50 77
e 50 80
e 50 85
e 50 88
e 50 93
e 51 52
e 51 56
e 51 64
e 51 68
e 51 99
e 52 55
e 52 60
e 52 72
e 52 100
e 53 59
e 53 64
e 53 67
e 53 77
e 53 82
e 53 85
e 53 91
e 54 55
e 54 57
e 54 63
e 54 72
e 54 100
e 55 57
e 55 62
e 55 71
e 55 86
e 55 89
e 55 96
e 56 57
e 56 60
e 56 66
e 56 67
e 56 68
e 56 69
e 56 78
e 56 86
e 56 89
e 56 93
e 56 100
e 57 61
e 57 63
e 57 67
e 57 81
e 57 84
e 57 96
e 57 98
e 58 64
e 58 66
e 58 78
e 58 89
e 58 98
e 59 61
e 59 89
e 60 63
e 60 69
e 60 75
e 60 76
e 60 86
e 61 62
e 61 72
e 61 86
e 61 95
e 61 97
e 62 70
e 62 75
e 62 76
e 62 88
e 62 96
e 62 99
e 63 72
e 63 73
e 63 88
e 63 91
e 63 98
e 64 65
e 64 66
e 64 67
e 64 68
e 64 78
e 64 84
e 64 96
e 65 77
e 65 80
e 65 82
e 65 100
e 66 68
e 66 70
e 66 72
e 66 76
e 66 87
e 66 91
e 66 94
e 66 95
e 66 99
e 67 74
e 67 81
e 67 85
e 68 73
e 68 78
e 68 91
e 69 72
e 69 79
e 69 84
e 70 75
e 70 89
e 70 94
e 70 97
e 71 77
e 71 79
e 71 83
e 71 89
e 71 99
e 72 89
e 72 90
e 72 94
e 72 96
e 73 74
e 73 76
e 73 88
e 73 90
e 73 92
e 73 95
e 73 96
e 74 78
e 74 79
e 74 85
e 74 87
e 74 88
e 74 96
e 74 99
e 75 79
e 75 80
e 75 82
e 75 87
e 76 77
e 76 81
e 76 85
e 76 96
e 77 84
e 77 91
e 78 81
e 79 93
e 79 94
e 79 96
e 80 83
e 80 84
e 81 87
e 81 88
e 81 90
e 81 97
e 82 83
e 82 87
e 82 88
e 83 94
e 84 86
e 84 98
e 85 97
e 86 91
e 86 92
e 87 95
e 87 96
e 87 100
e 89 92
e 89 95
e 91 94
e 92 93
e 93 96
e 95 100
e 96 100
